data/OOEBPP/R750/BPP_750_120_0.2_0.8_2.txt.ins
750
120 120
1 96 944
2 96 411
3 96 357
4 96 482
5 96 991
6 96 259
7 96 657
8 96 813
9 96 123
10 96 925
11 96 656
12 96 427
13 96 479
14 96 928
15 96 428
16 96 705
17 96 733
18 96 725
19 96 270
20 95 415
21 95 649
22 95 379
23 95 18
24 95 437
25 95 637
26 95 446
27 95 38
28 95 713
29 94 132
30 94 142
31 94 911
32 94 138
33 94 426
34 94 854
35 94 440
36 94 17
37 94 23
38 94 864
39 93 652
40 93 823
41 93 688
42 93 204
43 93 131
44 93 329
45 93 676
46 93 866
47 93 167
48 93 352
49 93 522
50 93 294
51 93 738
52 93 232
53 93 987
54 93 838
55 93 665
56 92 279
57 92 948
58 92 978
59 92 855
60 92 252
61 92 206
62 92 633
63 92 822
64 92 923
65 92 940
66 92 998
67 91 275
68 91 618
69 91 621
70 91 830
71 91 559
72 90 472
73 90 538
74 90 207
75 90 522
76 90 268
77 90 481
78 90 419
79 90 174
80 90 883
81 90 531
82 90 879
83 90 328
84 89 115
85 89 787
86 89 191
87 89 481
88 89 180
89 89 609
90 89 560
91 89 669
92 88 137
93 88 150
94 88 347
95 88 326
96 88 611
97 88 434
98 88 465
99 88 400
100 88 11
101 88 113
102 88 514
103 88 452
104 88 770
105 88 569
106 88 96
107 87 153
108 87 311
109 87 692
110 87 365
111 87 919
112 87 847
113 87 423
114 87 513
115 87 804
116 87 832
117 86 586
118 86 948
119 86 145
120 86 90
121 86 360
122 86 177
123 86 198
124 86 633
125 86 122
126 86 997
127 86 752
128 86 893
129 86 245
130 86 150
131 86 304
132 85 792
133 85 819
134 85 636
135 85 297
136 85 66
137 85 43
138 85 802
139 85 739
140 84 9
141 84 397
142 84 592
143 84 783
144 84 541
145 84 770
146 84 748
147 84 335
148 84 241
149 84 560
150 84 970
151 83 798
152 83 169
153 83 407
154 83 600
155 83 588
156 83 324
157 82 634
158 82 766
159 82 549
160 82 790
161 82 675
162 82 390
163 82 953
164 81 350
165 81 398
166 81 884
167 81 494
168 81 525
169 81 479
170 81 916
171 81 177
172 80 663
173 80 677
174 80 701
175 80 37
176 80 345
177 80 885
178 80 316
179 80 59
180 80 967
181 79 739
182 79 403
183 79 199
184 79 900
185 79 302
186 79 175
187 79 945
188 79 746
189 79 276
190 78 269
191 78 622
192 78 213
193 78 198
194 78 796
195 78 727
196 78 814
197 78 459
198 78 736
199 78 460
200 78 628
201 78 931
202 78 134
203 78 495
204 78 837
205 77 906
206 77 735
207 77 565
208 77 324
209 77 2
210 77 481
211 77 665
212 77 883
213 76 512
214 76 716
215 76 218
216 76 87
217 76 219
218 76 200
219 76 22
220 76 4
221 75 425
222 75 946
223 75 931
224 75 998
225 75 436
226 75 530
227 75 880
228 75 374
229 74 275
230 74 942
231 74 699
232 74 376
233 74 228
234 74 75
235 74 761
236 74 420
237 74 84
238 74 619
239 74 88
240 74 67
241 74 1
242 74 387
243 74 883
244 74 190
245 74 270
246 74 735
247 73 735
248 73 754
249 73 228
250 73 327
251 73 322
252 73 752
253 73 465
254 73 344
255 72 542
256 72 64
257 72 680
258 72 911
259 72 759
260 72 710
261 72 96
262 72 174
263 72 748
264 72 794
265 72 45
266 72 107
267 72 601
268 72 978
269 72 617
270 72 106
271 71 441
272 71 987
273 71 802
274 71 674
275 71 503
276 71 802
277 71 521
278 71 867
279 71 916
280 71 500
281 70 970
282 70 29
283 70 929
284 70 237
285 70 750
286 70 722
287 70 986
288 70 467
289 70 292
290 70 100
291 70 415
292 69 431
293 69 175
294 69 220
295 69 537
296 69 155
297 69 686
298 69 196
299 69 581
300 69 650
301 69 599
302 69 944
303 69 319
304 69 466
305 68 157
306 68 80
307 68 257
308 68 913
309 68 238
310 68 153
311 68 124
312 68 215
313 67 96
314 67 539
315 67 337
316 67 495
317 67 231
318 67 829
319 67 332
320 67 412
321 67 486
322 66 938
323 66 806
324 66 131
325 66 356
326 66 921
327 66 333
328 66 33
329 65 64
330 65 288
331 65 170
332 65 52
333 65 225
334 65 419
335 65 360
336 65 612
337 65 438
338 65 176
339 65 862
340 65 767
341 65 2
342 64 625
343 64 674
344 64 472
345 64 845
346 64 430
347 64 329
348 64 838
349 64 242
350 64 872
351 63 939
352 63 678
353 63 208
354 63 518
355 63 987
356 63 20
357 63 765
358 63 190
359 63 61
360 63 503
361 63 285
362 63 990
363 63 948
364 62 667
365 62 87
366 62 44
367 62 577
368 62 370
369 62 465
370 62 468
371 62 142
372 62 459
373 62 329
374 62 636
375 62 913
376 62 300
377 62 262
378 61 105
379 61 549
380 61 316
381 61 395
382 61 131
383 61 308
384 61 934
385 61 672
386 61 76
387 61 175
388 61 210
389 61 241
390 61 609
391 60 578
392 60 68
393 60 306
394 60 763
395 60 919
396 60 275
397 60 224
398 60 233
399 60 793
400 60 947
401 59 393
402 59 861
403 59 578
404 59 21
405 59 683
406 59 359
407 59 858
408 59 141
409 59 401
410 58 155
411 58 482
412 58 460
413 58 837
414 58 88
415 58 684
416 57 459
417 57 924
418 57 210
419 57 196
420 57 640
421 57 487
422 57 453
423 57 872
424 57 44
425 57 644
426 57 125
427 57 951
428 56 481
429 56 426
430 56 150
431 56 509
432 56 836
433 56 466
434 56 367
435 56 536
436 56 457
437 56 760
438 55 621
439 55 366
440 55 955
441 55 907
442 55 250
443 55 592
444 55 202
445 55 367
446 55 700
447 55 929
448 54 132
449 54 398
450 54 858
451 54 465
452 54 773
453 54 566
454 54 949
455 54 942
456 54 215
457 53 196
458 53 451
459 53 351
460 53 160
461 53 286
462 53 793
463 53 953
464 53 497
465 52 616
466 52 848
467 52 794
468 52 666
469 52 983
470 52 175
471 52 638
472 51 391
473 51 176
474 51 13
475 51 273
476 51 798
477 51 440
478 51 606
479 51 776
480 51 56
481 51 25
482 51 914
483 51 727
484 51 239
485 51 140
486 51 660
487 50 180
488 50 484
489 50 792
490 50 969
491 50 213
492 50 705
493 50 539
494 50 493
495 50 816
496 49 673
497 49 715
498 49 227
499 49 414
500 49 503
501 49 383
502 49 214
503 48 393
504 48 359
505 48 946
506 48 122
507 48 29
508 48 263
509 48 122
510 48 417
511 48 593
512 47 779
513 47 619
514 47 888
515 47 560
516 47 904
517 47 970
518 47 690
519 47 322
520 47 529
521 47 622
522 47 573
523 47 607
524 47 673
525 47 477
526 46 965
527 46 897
528 46 860
529 46 576
530 46 213
531 46 832
532 46 254
533 46 19
534 46 612
535 46 684
536 45 742
537 45 491
538 45 935
539 45 483
540 45 962
541 45 542
542 45 838
543 45 740
544 45 55
545 45 584
546 44 630
547 44 518
548 44 804
549 44 68
550 44 778
551 44 625
552 44 269
553 43 449
554 43 561
555 43 453
556 43 255
557 43 617
558 43 965
559 43 583
560 43 525
561 43 84
562 42 874
563 42 581
564 42 212
565 42 57
566 42 549
567 42 262
568 42 519
569 42 726
570 42 603
571 42 209
572 42 685
573 42 835
574 41 327
575 41 627
576 41 712
577 41 594
578 41 346
579 41 367
580 41 105
581 41 127
582 41 30
583 41 680
584 41 850
585 40 722
586 40 333
587 40 668
588 40 29
589 40 58
590 40 297
591 40 931
592 40 184
593 40 932
594 40 665
595 40 878
596 40 718
597 40 304
598 40 17
599 40 7
600 40 539
601 39 682
602 39 441
603 39 461
604 39 945
605 39 369
606 39 534
607 39 330
608 39 384
609 38 265
610 38 417
611 38 924
612 38 250
613 38 525
614 38 797
615 38 593
616 38 517
617 38 527
618 38 524
619 38 775
620 37 547
621 37 787
622 37 455
623 37 561
624 37 485
625 37 27
626 37 849
627 37 881
628 36 790
629 36 722
630 36 380
631 36 935
632 36 275
633 36 545
634 36 851
635 36 246
636 36 34
637 36 139
638 36 734
639 36 775
640 36 853
641 36 856
642 36 193
643 35 704
644 35 873
645 35 202
646 35 352
647 35 961
648 35 734
649 35 6
650 35 281
651 35 962
652 35 316
653 35 127
654 34 845
655 34 67
656 34 320
657 34 403
658 34 728
659 34 82
660 34 84
661 34 242
662 34 904
663 34 539
664 33 572
665 33 784
666 33 162
667 33 914
668 33 192
669 33 381
670 32 123
671 32 186
672 32 323
673 32 645
674 32 511
675 32 182
676 31 298
677 31 370
678 31 609
679 31 45
680 31 779
681 31 916
682 31 306
683 31 90
684 31 139
685 31 112
686 30 965
687 30 229
688 30 944
689 30 72
690 30 897
691 30 882
692 30 984
693 30 427
694 30 151
695 29 736
696 29 991
697 29 568
698 29 150
699 29 933
700 29 758
701 29 37
702 29 857
703 29 739
704 28 834
705 28 533
706 28 476
707 28 468
708 28 55
709 28 481
710 28 993
711 28 814
712 28 261
713 28 945
714 27 409
715 27 559
716 27 311
717 27 673
718 27 826
719 27 901
720 27 96
721 27 337
722 27 544
723 27 199
724 27 847
725 27 719
726 26 615
727 26 628
728 26 34
729 26 880
730 26 281
731 26 397
732 26 138
733 26 131
734 26 61
735 26 221
736 26 952
737 26 547
738 25 702
739 25 761
740 25 783
741 25 593
742 25 171
743 25 972
744 25 515
745 24 26
746 24 90
747 24 34
748 24 321
749 24 256
750 24 867
