results/OOEBPP/BPP_750_120_0.2_0.8_2.txt.ins.log
224,223.314,15.9506,OPT,6820,0,0,AI,0,0.0446429,2.95089,0.292277,15.3742,0,2,0,50,49
